c SAT Generator for power-law distributed variable frequencies
c -g u -v 20 -c 91 -k 3 -p 2.750000 -b 3.200000 -f /home/schmidt/Devel/ni-kop-sat/data/ensemble/ruf20-91/ruf20-91-276 -u 1 -U 1 -s 1932525372
p cnf 20 91
1 -10 19 0
-10 15 -18 0
10 -15 -20 0
5 -7 -16 0
-5 9 16 0
6 8 17 0
3 12 -16 0
4 8 15 0
3 5 -8 0
18 -19 -20 0
-1 6 -20 0
5 6 14 0
-1 2 -6 0
-10 -12 -17 0
4 -7 15 0
13 -15 -17 0
-6 12 -17 0
12 -18 -20 0
-5 6 -17 0
-16 19 20 0
2 13 -14 0
10 12 14 0
-5 -7 12 0
2 9 20 0
-5 7 -15 0
-2 -16 19 0
-11 -14 -15 0
3 8 20 0
-8 14 -17 0
-4 10 -20 0
2 -8 -10 0
-1 7 -15 0
-10 12 -13 0
-2 -19 20 0
-8 -9 -14 0
-1 -11 -16 0
1 4 16 0
1 -7 -17 0
3 14 -18 0
8 9 17 0
-4 8 10 0
9 15 -16 0
-1 5 10 0
3 -8 -15 0
2 8 -19 0
-1 -14 -15 0
12 17 -20 0
5 -8 -14 0
-10 11 20 0
5 -9 19 0
2 5 6 0
1 4 -9 0
7 -13 -20 0
-14 -17 18 0
-2 -13 14 0
-2 -4 8 0
5 8 15 0
-14 19 20 0
2 6 -10 0
-6 -12 -15 0
-6 15 18 0
-4 5 8 0
3 12 -14 0
5 9 10 0
-1 8 -12 0
2 15 17 0
7 10 20 0
-2 9 15 0
2 8 9 0
1 7 -8 0
-4 8 -16 0
-2 -3 19 0
-4 8 11 0
-6 13 -16 0
-12 -15 -16 0
15 18 -19 0
4 -10 18 0
-4 -11 -12 0
-8 9 12 0
-4 9 19 0
2 -5 -15 0
3 -5 13 0
-4 13 18 0
7 -11 18 0
4 -5 -10 0
5 -6 20 0
-18 -19 20 0
-1 5 11 0
8 10 17 0
11 14 -18 0
11 12 13 0
